solution status: optimal solution found
objective value:                                    7
$_67_y                                             12 	(obj:0)
$_67_z                                             10 	(obj:0)
$_99_y                                             16 	(obj:0)
$_99_z                                             13 	(obj:0)
$_150_y                                            18 	(obj:0)
$_150_z                                            10 	(obj:0)
$_68_y                                             11 	(obj:0)
$_68_z                                             10 	(obj:0)
$_91_y                                             15 	(obj:0)
$_91_z                                             14 	(obj:0)
$_103_y                                            15 	(obj:0)
$_103_z                                            17 	(obj:0)
$_149_y                                            14 	(obj:0)
$_149_z                                            10 	(obj:0)
$_85_y                                             14 	(obj:0)
$_85_z                                             13 	(obj:0)
$_83_y                                             13 	(obj:0)
$_83_z                                             14 	(obj:0)
$_43_y                                             14 	(obj:0)
$_43_z                                             15 	(obj:0)
$_61_y                                             12 	(obj:0)
$_61_z                                             14 	(obj:0)
$_87_y                                             14 	(obj:0)
$_87_z                                             17 	(obj:0)
$_60_y                                             11 	(obj:0)
$_60_z                                             14 	(obj:0)
$_63_y                                             15 	(obj:0)
$_63_z                                             11 	(obj:0)
x38                                                 1 	(obj:1)
x55                                                 2 	(obj:1)
x61                                                 1 	(obj:1)
x64                                                 1 	(obj:1)
x72                                                 2 	(obj:1)
